p cnf 256 1
256 0
w 1 0.664533
w 2 1 0
w 2 -1 1
w 3 2 0.29055
w 3 -2 0.26814
w 4 3 1
w 4 -3 0
w 5 4 0.733533
w 5 -4 0.103607
w 6 5 0.612431
w 6 -5 0.13438
w 7 6 0.97065
w 7 -6 0.509028
w 8 7 1
w 8 -7 0
w 9 8 0
w 9 -8 1
w 10 9 0.596665
w 10 -9 0.502332
w 11 10 0.420063
w 11 -10 0.997596
w 12 11 0.344773
w 12 -11 0.823469
w 13 12 0.00930574
w 13 -12 0.117398
w 14 13 1
w 14 -13 0
w 15 14 1
w 15 -14 0
w 16 15 0
w 16 -15 1
w 17 1 0.83727
w 17 -1 0.0726431
w 18 17 2 0.4497
w 18 17 -2 0.207023
w 18 -17 2 0.418379
w 18 -17 -2 0.420351
w 19 18 3 0.481524
w 19 18 -3 0.146941
w 19 -18 3 0.946496
w 19 -18 -3 0.422378
w 20 19 4 1
w 20 19 -4 1
w 20 -19 4 1
w 20 -19 -4 0
w 21 20 5 0.490236
w 21 20 -5 0.307997
w 21 -20 5 0.745776
w 21 -20 -5 0.115514
w 22 21 6 0
w 22 21 -6 1
w 22 -21 6 1
w 22 -21 -6 1
w 23 22 7 0
w 23 22 -7 0
w 23 -22 7 0
w 23 -22 -7 1
w 24 23 8 0.555306
w 24 23 -8 0.519824
w 24 -23 8 0.293346
w 24 -23 -8 0.975657
w 25 24 9 0
w 25 24 -9 0
w 25 -24 9 1
w 25 -24 -9 1
w 26 25 10 1
w 26 25 -10 0
w 26 -25 10 1
w 26 -25 -10 1
w 27 26 11 1
w 27 26 -11 1
w 27 -26 11 1
w 27 -26 -11 0
w 28 27 12 0
w 28 27 -12 1
w 28 -27 12 1
w 28 -27 -12 1
w 29 28 13 1
w 29 28 -13 1
w 29 -28 13 0
w 29 -28 -13 1
w 30 29 14 0
w 30 29 -14 0
w 30 -29 14 1
w 30 -29 -14 1
w 31 30 15 1
w 31 30 -15 0
w 31 -30 15 1
w 31 -30 -15 1
w 32 31 16 0.690614
w 32 31 -16 0.140895
w 32 -31 16 0.955247
w 32 -31 -16 0.79606
w 33 17 0.999512
w 33 -17 0.391741
w 34 33 18 0.789552
w 34 33 -18 0.102937
w 34 -33 18 0.140459
w 34 -33 -18 0.442767
w 35 34 19 0.619113
w 35 34 -19 0.367102
w 35 -34 19 0.299259
w 35 -34 -19 0.366103
w 36 35 20 0.992117
w 36 35 -20 0.218699
w 36 -35 20 0.00888796
w 36 -35 -20 0.559942
w 37 36 21 0.00600511
w 37 36 -21 0.421113
w 37 -36 21 0.0101579
w 37 -36 -21 0.238997
w 38 37 22 0
w 38 37 -22 0
w 38 -37 22 1
w 38 -37 -22 0
w 39 38 23 0.00298801
w 39 38 -23 0.624905
w 39 -38 23 0.8452
w 39 -38 -23 0.394729
w 40 39 24 1
w 40 39 -24 0
w 40 -39 24 1
w 40 -39 -24 0
w 41 40 25 0
w 41 40 -25 0
w 41 -40 25 0
w 41 -40 -25 1
w 42 41 26 0.758501
w 42 41 -26 0.795682
w 42 -41 26 0.985103
w 42 -41 -26 0.318443
w 43 42 27 1
w 43 42 -27 1
w 43 -42 27 0
w 43 -42 -27 0
w 44 43 28 0.948754
w 44 43 -28 0.884465
w 44 -43 28 0.68715
w 44 -43 -28 0.155682
w 45 44 29 0.532838
w 45 44 -29 0.15867
w 45 -44 29 0.304625
w 45 -44 -29 0.378038
w 46 45 30 0.755933
w 46 45 -30 0.0127897
w 46 -45 30 0.0510651
w 46 -45 -30 0.3477
w 47 46 31 1
w 47 46 -31 0
w 47 -46 31 0
w 47 -46 -31 0
w 48 47 32 1
w 48 47 -32 1
w 48 -47 32 0
w 48 -47 -32 1
w 49 33 1
w 49 -33 0
w 50 49 34 1
w 50 49 -34 1
w 50 -49 34 0
w 50 -49 -34 0
w 51 50 35 0.584932
w 51 50 -35 0.890401
w 51 -50 35 0.281646
w 51 -50 -35 0.11777
w 52 51 36 0
w 52 51 -36 0
w 52 -51 36 0
w 52 -51 -36 1
w 53 52 37 0.653535
w 53 52 -37 0.689903
w 53 -52 37 0.598905
w 53 -52 -37 0.171725
w 54 53 38 0
w 54 53 -38 1
w 54 -53 38 0
w 54 -53 -38 1
w 55 54 39 1
w 55 54 -39 1
w 55 -54 39 1
w 55 -54 -39 0
w 56 55 40 0.961967
w 56 55 -40 0.454781
w 56 -55 40 0.346039
w 56 -55 -40 0.859749
w 57 56 41 1
w 57 56 -41 0
w 57 -56 41 0
w 57 -56 -41 0
w 58 57 42 0.128971
w 58 57 -42 0.815881
w 58 -57 42 0.0582588
w 58 -57 -42 0.731441
w 59 58 43 0
w 59 58 -43 1
w 59 -58 43 0
w 59 -58 -43 0
w 60 59 44 0.0964706
w 60 59 -44 0.299595
w 60 -59 44 0.0129997
w 60 -59 -44 0.480516
w 61 60 45 0.512375
w 61 60 -45 0.795805
w 61 -60 45 0.0857974
w 61 -60 -45 0.373268
w 62 61 46 0
w 62 61 -46 0
w 62 -61 46 1
w 62 -61 -46 0
w 63 62 47 0
w 63 62 -47 1
w 63 -62 47 1
w 63 -62 -47 0
w 64 63 48 1
w 64 63 -48 1
w 64 -63 48 0
w 64 -63 -48 1
w 65 49 1
w 65 -49 0
w 66 65 50 0.43419
w 66 65 -50 0.0599455
w 66 -65 50 0.992994
w 66 -65 -50 0.99089
w 67 66 51 1
w 67 66 -51 1
w 67 -66 51 0
w 67 -66 -51 1
w 68 67 52 0.432737
w 68 67 -52 0.322959
w 68 -67 52 0.889533
w 68 -67 -52 0.897358
w 69 68 53 0
w 69 68 -53 1
w 69 -68 53 0
w 69 -68 -53 1
w 70 69 54 0.106133
w 70 69 -54 0.0594188
w 70 -69 54 0.114463
w 70 -69 -54 0.344125
w 71 70 55 0
w 71 70 -55 1
w 71 -70 55 1
w 71 -70 -55 1
w 72 71 56 0.349145
w 72 71 -56 0.91564
w 72 -71 56 0.669901
w 72 -71 -56 0.342139
w 73 72 57 0.826317
w 73 72 -57 0.634728
w 73 -72 57 0.910421
w 73 -72 -57 0.463249
w 74 73 58 0.426685
w 74 73 -58 0.895986
w 74 -73 58 0.194849
w 74 -73 -58 0.316218
w 75 74 59 0.232185
w 75 74 -59 0.540986
w 75 -74 59 0.610104
w 75 -74 -59 0.329938
w 76 75 60 0.535764
w 76 75 -60 0.436071
w 76 -75 60 0.0201572
w 76 -75 -60 0.650227
w 77 76 61 0.281694
w 77 76 -61 0.0824631
w 77 -76 61 0.178194
w 77 -76 -61 0.803606
w 78 77 62 0.78815
w 78 77 -62 0.152752
w 78 -77 62 0.479554
w 78 -77 -62 0.458051
w 79 78 63 0
w 79 78 -63 0
w 79 -78 63 0
w 79 -78 -63 1
w 80 79 64 0
w 80 79 -64 1
w 80 -79 64 0
w 80 -79 -64 0
w 81 65 0
w 81 -65 1
w 82 81 66 1
w 82 81 -66 0
w 82 -81 66 1
w 82 -81 -66 1
w 83 82 67 0
w 83 82 -67 0
w 83 -82 67 1
w 83 -82 -67 0
w 84 83 68 0.87942
w 84 83 -68 0.941092
w 84 -83 68 0.799342
w 84 -83 -68 0.358974
w 85 84 69 0
w 85 84 -69 0
w 85 -84 69 1
w 85 -84 -69 0
w 86 85 70 0
w 86 85 -70 0
w 86 -85 70 1
w 86 -85 -70 0
w 87 86 71 0.511682
w 87 86 -71 0.0502582
w 87 -86 71 0.384559
w 87 -86 -71 0.558734
w 88 87 72 0.925692
w 88 87 -72 0.14155
w 88 -87 72 0.00328982
w 88 -87 -72 0.486982
w 89 88 73 0
w 89 88 -73 0
w 89 -88 73 1
w 89 -88 -73 0
w 90 89 74 0.0720721
w 90 89 -74 0.775898
w 90 -89 74 0.928494
w 90 -89 -74 0.471216
w 91 90 75 0
w 91 90 -75 1
w 91 -90 75 0
w 91 -90 -75 0
w 92 91 76 0.919339
w 92 91 -76 0.479872
w 92 -91 76 0.660592
w 92 -91 -76 0.541055
w 93 92 77 0
w 93 92 -77 0
w 93 -92 77 1
w 93 -92 -77 1
w 94 93 78 0
w 94 93 -78 0
w 94 -93 78 0
w 94 -93 -78 1
w 95 94 79 0
w 95 94 -79 1
w 95 -94 79 1
w 95 -94 -79 1
w 96 95 80 0.163689
w 96 95 -80 0.435267
w 96 -95 80 0.0556468
w 96 -95 -80 0.23382
w 97 81 0
w 97 -81 1
w 98 97 82 0.823937
w 98 97 -82 0.796232
w 98 -97 82 0.64714
w 98 -97 -82 0.303809
w 99 98 83 0
w 99 98 -83 0
w 99 -98 83 1
w 99 -98 -83 0
w 100 99 84 0
w 100 99 -84 0
w 100 -99 84 0
w 100 -99 -84 1
w 101 100 85 0.479816
w 101 100 -85 0.964281
w 101 -100 85 0.34323
w 101 -100 -85 0.417068
w 102 101 86 1
w 102 101 -86 0
w 102 -101 86 0
w 102 -101 -86 1
w 103 102 87 0
w 103 102 -87 1
w 103 -102 87 0
w 103 -102 -87 0
w 104 103 88 0.291864
w 104 103 -88 0.123325
w 104 -103 88 0.503472
w 104 -103 -88 0.595673
w 105 104 89 0.691667
w 105 104 -89 0.183519
w 105 -104 89 0.209247
w 105 -104 -89 0.471176
w 106 105 90 0
w 106 105 -90 0
w 106 -105 90 1
w 106 -105 -90 0
w 107 106 91 0
w 107 106 -91 0
w 107 -106 91 1
w 107 -106 -91 0
w 108 107 92 0.67456
w 108 107 -92 0.296931
w 108 -107 92 0.622741
w 108 -107 -92 0.735631
w 109 108 93 0
w 109 108 -93 1
w 109 -108 93 0
w 109 -108 -93 0
w 110 109 94 1
w 110 109 -94 1
w 110 -109 94 0
w 110 -109 -94 1
w 111 110 95 1
w 111 110 -95 0
w 111 -110 95 0
w 111 -110 -95 1
w 112 111 96 0.960791
w 112 111 -96 0.661515
w 112 -111 96 0.493553
w 112 -111 -96 0.251476
w 113 97 0
w 113 -97 1
w 114 113 98 0
w 114 113 -98 0
w 114 -113 98 1
w 114 -113 -98 0
w 115 114 99 0.336998
w 115 114 -99 0.0670042
w 115 -114 99 0.335303
w 115 -114 -99 0.528639
w 116 115 100 0
w 116 115 -100 1
w 116 -115 100 1
w 116 -115 -100 1
w 117 116 101 0
w 117 116 -101 1
w 117 -116 101 0
w 117 -116 -101 1
w 118 117 102 0
w 118 117 -102 1
w 118 -117 102 0
w 118 -117 -102 1
w 119 118 103 1
w 119 118 -103 0
w 119 -118 103 0
w 119 -118 -103 0
w 120 119 104 0.515351
w 120 119 -104 0.0656032
w 120 -119 104 0.824908
w 120 -119 -104 0.959614
w 121 120 105 0.161906
w 121 120 -105 0.0266183
w 121 -120 105 0.000577884
w 121 -120 -105 0.690545
w 122 121 106 0
w 122 121 -106 0
w 122 -121 106 1
w 122 -121 -106 0
w 123 122 107 0.814371
w 123 122 -107 0.225188
w 123 -122 107 0.269958
w 123 -122 -107 0.391956
w 124 123 108 0.346888
w 124 123 -108 0.490373
w 124 -123 108 0.422909
w 124 -123 -108 0.266634
w 125 124 109 0.729366
w 125 124 -109 0.679934
w 125 -124 109 0.860266
w 125 -124 -109 0.499354
w 126 125 110 0.645108
w 126 125 -110 0.0147054
w 126 -125 110 0.886029
w 126 -125 -110 0.470016
w 127 126 111 0.551303
w 127 126 -111 0.631922
w 127 -126 111 0.000937897
w 127 -126 -111 0.551881
w 128 127 112 1
w 128 127 -112 0
w 128 -127 112 1
w 128 -127 -112 1
w 129 113 0
w 129 -113 1
w 130 129 114 0
w 130 129 -114 0
w 130 -129 114 1
w 130 -129 -114 0
w 131 130 115 0
w 131 130 -115 0
w 131 -130 115 0
w 131 -130 -115 1
w 132 131 116 0.757057
w 132 131 -116 0.950221
w 132 -131 116 0.810333
w 132 -131 -116 0.402165
w 133 132 117 0.696361
w 133 132 -117 0.872181
w 133 -132 117 0.939246
w 133 -132 -117 0.247665
w 134 133 118 0.940184
w 134 133 -118 0.799546
w 134 -133 118 0.826571
w 134 -133 -118 0.016593
w 135 134 119 0.688394
w 135 134 -119 0.667103
w 135 -134 119 0.835095
w 135 -134 -119 0.114888
w 136 135 120 1
w 136 135 -120 0
w 136 -135 120 0
w 136 -135 -120 1
w 137 136 121 0.336031
w 137 136 -121 0.375812
w 137 -136 121 0.164653
w 137 -136 -121 0.232822
w 138 137 122 0.15456
w 138 137 -122 0.98988
w 138 -137 122 0.776899
w 138 -137 -122 0.964893
w 139 138 123 1
w 139 138 -123 0
w 139 -138 123 1
w 139 -138 -123 1
w 140 139 124 0.768329
w 140 139 -124 0.621255
w 140 -139 124 0.708465
w 140 -139 -124 0.5949
w 141 140 125 0.248123
w 141 140 -125 0.283294
w 141 -140 125 0.304951
w 141 -140 -125 0.0832174
w 142 141 126 0
w 142 141 -126 1
w 142 -141 126 1
w 142 -141 -126 1
w 143 142 127 0
w 143 142 -127 1
w 143 -142 127 1
w 143 -142 -127 1
w 144 143 128 1
w 144 143 -128 0
w 144 -143 128 0
w 144 -143 -128 0
w 145 129 0.00956159
w 145 -129 0.640762
w 146 145 130 1
w 146 145 -130 0
w 146 -145 130 1
w 146 -145 -130 0
w 147 146 131 0
w 147 146 -131 0
w 147 -146 131 1
w 147 -146 -131 0
w 148 147 132 0.685467
w 148 147 -132 0.496525
w 148 -147 132 0.397223
w 148 -147 -132 0.894989
w 149 148 133 0.490471
w 149 148 -133 0.959191
w 149 -148 133 0.68407
w 149 -148 -133 0.959532
w 150 149 134 0
w 150 149 -134 1
w 150 -149 134 1
w 150 -149 -134 0
w 151 150 135 1
w 151 150 -135 0
w 151 -150 135 1
w 151 -150 -135 0
w 152 151 136 0.637908
w 152 151 -136 0.847809
w 152 -151 136 0.0895599
w 152 -151 -136 0.754698
w 153 152 137 0
w 153 152 -137 1
w 153 -152 137 0
w 153 -152 -137 1
w 154 153 138 0.308108
w 154 153 -138 0.0663037
w 154 -153 138 0.0654494
w 154 -153 -138 0.705331
w 155 154 139 0.987731
w 155 154 -139 0.195802
w 155 -154 139 0.920484
w 155 -154 -139 0.671801
w 156 155 140 1
w 156 155 -140 1
w 156 -155 140 1
w 156 -155 -140 0
w 157 156 141 1
w 157 156 -141 1
w 157 -156 141 1
w 157 -156 -141 0
w 158 157 142 0.733829
w 158 157 -142 0.518795
w 158 -157 142 0.376892
w 158 -157 -142 0.823389
w 159 158 143 1
w 159 158 -143 1
w 159 -158 143 1
w 159 -158 -143 0
w 160 159 144 1
w 160 159 -144 0
w 160 -159 144 0
w 160 -159 -144 0
w 161 145 0
w 161 -145 1
w 162 161 146 0
w 162 161 -146 1
w 162 -161 146 1
w 162 -161 -146 1
w 163 162 147 0
w 163 162 -147 1
w 163 -162 147 0
w 163 -162 -147 1
w 164 163 148 0.494231
w 164 163 -148 0.596049
w 164 -163 148 0.163213
w 164 -163 -148 0.228061
w 165 164 149 0
w 165 164 -149 1
w 165 -164 149 1
w 165 -164 -149 1
w 166 165 150 0.171166
w 166 165 -150 0.59322
w 166 -165 150 0.266166
w 166 -165 -150 0.52292
w 167 166 151 0
w 167 166 -151 0
w 167 -166 151 1
w 167 -166 -151 0
w 168 167 152 1
w 168 167 -152 0
w 168 -167 152 1
w 168 -167 -152 0
w 169 168 153 0.849011
w 169 168 -153 0.271106
w 169 -168 153 0.590236
w 169 -168 -153 0.289882
w 170 169 154 0.224365
w 170 169 -154 0.784113
w 170 -169 154 0.582317
w 170 -169 -154 0.387578
w 171 170 155 1
w 171 170 -155 1
w 171 -170 155 1
w 171 -170 -155 0
w 172 171 156 0
w 172 171 -156 0
w 172 -171 156 1
w 172 -171 -156 0
w 173 172 157 0.0154515
w 173 172 -157 0.928425
w 173 -172 157 0.719707
w 173 -172 -157 0.333156
w 174 173 158 0.0647652
w 174 173 -158 0.0615703
w 174 -173 158 0.0855191
w 174 -173 -158 0.486559
w 175 174 159 1
w 175 174 -159 0
w 175 -174 159 0
w 175 -174 -159 1
w 176 175 160 0.613401
w 176 175 -160 0.455982
w 176 -175 160 0.409564
w 176 -175 -160 0.195718
w 177 161 0.421738
w 177 -161 0.892878
w 178 177 162 0.485362
w 178 177 -162 0.978376
w 178 -177 162 0.0906768
w 178 -177 -162 0.517375
w 179 178 163 0
w 179 178 -163 1
w 179 -178 163 1
w 179 -178 -163 0
w 180 179 164 0.734331
w 180 179 -164 0.351939
w 180 -179 164 0.628022
w 180 -179 -164 0.799097
w 181 180 165 1
w 181 180 -165 0
w 181 -180 165 0
w 181 -180 -165 0
w 182 181 166 0.39667
w 182 181 -166 0.586538
w 182 -181 166 0.246676
w 182 -181 -166 0.0100711
w 183 182 167 0
w 183 182 -167 1
w 183 -182 167 1
w 183 -182 -167 0
w 184 183 168 1
w 184 183 -168 0
w 184 -183 168 0
w 184 -183 -168 1
w 185 184 169 0
w 185 184 -169 1
w 185 -184 169 1
w 185 -184 -169 1
w 186 185 170 0.640248
w 186 185 -170 0.0610384
w 186 -185 170 0.122052
w 186 -185 -170 0.26827
w 187 186 171 0.535561
w 187 186 -171 0.981811
w 187 -186 171 0.14579
w 187 -186 -171 0.305098
w 188 187 172 0
w 188 187 -172 1
w 188 -187 172 1
w 188 -187 -172 1
w 189 188 173 0.965791
w 189 188 -173 0.669932
w 189 -188 173 0.917628
w 189 -188 -173 0.851871
w 190 189 174 0.0162948
w 190 189 -174 0.509194
w 190 -189 174 0.311251
w 190 -189 -174 0.0933378
w 191 190 175 1
w 191 190 -175 1
w 191 -190 175 0
w 191 -190 -175 0
w 192 191 176 0.778637
w 192 191 -176 0.928483
w 192 -191 176 0.793166
w 192 -191 -176 0.90069
w 193 177 0
w 193 -177 1
w 194 193 178 1
w 194 193 -178 1
w 194 -193 178 0
w 194 -193 -178 0
w 195 194 179 0.443117
w 195 194 -179 0.438566
w 195 -194 179 0.579798
w 195 -194 -179 0.154956
w 196 195 180 1
w 196 195 -180 1
w 196 -195 180 0
w 196 -195 -180 0
w 197 196 181 1
w 197 196 -181 0
w 197 -196 181 0
w 197 -196 -181 1
w 198 197 182 0.587638
w 198 197 -182 0.0311404
w 198 -197 182 0.989093
w 198 -197 -182 0.319765
w 199 198 183 0.917576
w 199 198 -183 0.112932
w 199 -198 183 0.710468
w 199 -198 -183 0.114328
w 200 199 184 0.146718
w 200 199 -184 0.292892
w 200 -199 184 0.565324
w 200 -199 -184 0.888067
w 201 200 185 0.131431
w 201 200 -185 0.331185
w 201 -200 185 0.246754
w 201 -200 -185 0.711229
w 202 201 186 0
w 202 201 -186 0
w 202 -201 186 1
w 202 -201 -186 0
w 203 202 187 0.647604
w 203 202 -187 0.672763
w 203 -202 187 0.26749
w 203 -202 -187 0.829821
w 204 203 188 0.968347
w 204 203 -188 0.417459
w 204 -203 188 0.72652
w 204 -203 -188 0.95744
w 205 204 189 0.536298
w 205 204 -189 0.875016
w 205 -204 189 0.850156
w 205 -204 -189 0.246765
w 206 205 190 0.616389
w 206 205 -190 0.393484
w 206 -205 190 0.282236
w 206 -205 -190 0.181713
w 207 206 191 0
w 207 206 -191 0
w 207 -206 191 0
w 207 -206 -191 1
w 208 207 192 0
w 208 207 -192 1
w 208 -207 192 0
w 208 -207 -192 0
w 209 193 0.94393
w 209 -193 0.305206
w 210 209 194 0.21142
w 210 209 -194 0.135027
w 210 -209 194 0.263771
w 210 -209 -194 0.179767
w 211 210 195 0.99029
w 211 210 -195 0.137207
w 211 -210 195 0.28971
w 211 -210 -195 0.526588
w 212 211 196 0
w 212 211 -196 1
w 212 -211 196 1
w 212 -211 -196 1
w 213 212 197 1
w 213 212 -197 1
w 213 -212 197 1
w 213 -212 -197 0
w 214 213 198 0.275485
w 214 213 -198 0.159999
w 214 -213 198 0.69969
w 214 -213 -198 0.260817
w 215 214 199 0.595319
w 215 214 -199 0.204747
w 215 -214 199 0.122807
w 215 -214 -199 0.16371
w 216 215 200 1
w 216 215 -200 1
w 216 -215 200 0
w 216 -215 -200 1
w 217 216 201 0
w 217 216 -201 1
w 217 -216 201 1
w 217 -216 -201 1
w 218 217 202 0.74693
w 218 217 -202 0.99615
w 218 -217 202 0.884547
w 218 -217 -202 0.0307326
w 219 218 203 0.332935
w 219 218 -203 0.404958
w 219 -218 203 0.18523
w 219 -218 -203 0.394057
w 220 219 204 1
w 220 219 -204 1
w 220 -219 204 1
w 220 -219 -204 0
w 221 220 205 1
w 221 220 -205 0
w 221 -220 205 0
w 221 -220 -205 0
w 222 221 206 0
w 222 221 -206 1
w 222 -221 206 0
w 222 -221 -206 1
w 223 222 207 1
w 223 222 -207 0
w 223 -222 207 1
w 223 -222 -207 0
w 224 223 208 0.0824011
w 224 223 -208 0.163815
w 224 -223 208 0.898692
w 224 -223 -208 0.966948
w 225 209 1
w 225 -209 0
w 226 225 210 0
w 226 225 -210 0
w 226 -225 210 1
w 226 -225 -210 0
w 227 226 211 0
w 227 226 -211 1
w 227 -226 211 0
w 227 -226 -211 0
w 228 227 212 0.126565
w 228 227 -212 0.114117
w 228 -227 212 0.518366
w 228 -227 -212 0.46901
w 229 228 213 0.520927
w 229 228 -213 0.40739
w 229 -228 213 0.429032
w 229 -228 -213 0.941258
w 230 229 214 0
w 230 229 -214 1
w 230 -229 214 1
w 230 -229 -214 1
w 231 230 215 0
w 231 230 -215 1
w 231 -230 215 1
w 231 -230 -215 0
w 232 231 216 0.65518
w 232 231 -216 0.453664
w 232 -231 216 0.743762
w 232 -231 -216 0.349121
w 233 232 217 0
w 233 232 -217 0
w 233 -232 217 1
w 233 -232 -217 0
w 234 233 218 0.549367
w 234 233 -218 0.330888
w 234 -233 218 0.163099
w 234 -233 -218 0.0183775
w 235 234 219 1
w 235 234 -219 1
w 235 -234 219 0
w 235 -234 -219 1
w 236 235 220 0.931231
w 236 235 -220 0.000474644
w 236 -235 220 0.712234
w 236 -235 -220 0.31958
w 237 236 221 0.605146
w 237 236 -221 0.674877
w 237 -236 221 0.514244
w 237 -236 -221 0.330869
w 238 237 222 1
w 238 237 -222 1
w 238 -237 222 0
w 238 -237 -222 0
w 239 238 223 1
w 239 238 -223 0
w 239 -238 223 0
w 239 -238 -223 1
w 240 239 224 1
w 240 239 -224 0
w 240 -239 224 1
w 240 -239 -224 1
w 241 225 0
w 241 -225 1
w 242 241 226 0.647593
w 242 241 -226 0.956023
w 242 -241 226 0.218142
w 242 -241 -226 0.365606
w 243 242 227 0.218616
w 243 242 -227 0.07784
w 243 -242 227 0.206834
w 243 -242 -227 0.878702
w 244 243 228 0.881711
w 244 243 -228 0.392945
w 244 -243 228 0.0138552
w 244 -243 -228 0.211769
w 245 244 229 1
w 245 244 -229 0
w 245 -244 229 0
w 245 -244 -229 1
w 246 245 230 0
w 246 245 -230 0
w 246 -245 230 0
w 246 -245 -230 1
w 247 246 231 1
w 247 246 -231 0
w 247 -246 231 1
w 247 -246 -231 1
w 248 247 232 0.37606
w 248 247 -232 0.153118
w 248 -247 232 0.754267
w 248 -247 -232 0.594202
w 249 248 233 0.641521
w 249 248 -233 0.812818
w 249 -248 233 0.596564
w 249 -248 -233 0.848354
w 250 249 234 0.27955
w 250 249 -234 0.730066
w 250 -249 234 0.0844654
w 250 -249 -234 0.293406
w 251 250 235 0.445318
w 251 250 -235 0.381892
w 251 -250 235 0.832782
w 251 -250 -235 0.943608
w 252 251 236 2.61082e-05
w 252 251 -236 0.280782
w 252 -251 236 0.873111
w 252 -251 -236 0.660337
w 253 252 237 0
w 253 252 -237 0
w 253 -252 237 1
w 253 -252 -237 1
w 254 253 238 0.367319
w 254 253 -238 0.286671
w 254 -253 238 0.803246
w 254 -253 -238 0.121586
w 255 254 239 0.32197
w 255 254 -239 0.763107
w 255 -254 239 0.693691
w 255 -254 -239 0.918534
w 256 255 240 0.385211
w 256 255 -240 0.198085
w 256 -255 240 0.341527
w 256 -255 -240 0.469677